c complement version
c FILE:  C125.9.clq
c
c SOURCE: Generated by Michael Trick using
c         ggen, a program by Craig Morgenstern
c 
c DESCRIPTION: Cx.y is a random graph on x vertices
c              with edge probability .y
c
c 
c G(n,p) graph
c graph gen seed     : 74328432
c number of vertices : 125
c max number of edges: 20000
c edge probability   : 0.900000
c data structure     : dense
c
c           Graph Stats
c number of vertices  : 125
c nonisolated vertices: 125
c number of edges     : 6963
c edge density        : 0.898452
c max degree          : 119
c avg degree          : 111.41
c min degree          : 102
p edges 125 787
e 1 67
e 1 37
e 1 108
e 1 42
e 1 12
e 1 109
e 1 53
e 1 118
e 1 87
e 1 56
e 1 106
e 1 95
e 2 66
e 2 3
e 2 75
e 2 13
e 2 15
e 2 120
e 2 20
e 2 53
e 2 55
e 2 56
e 2 90
e 3 65
e 3 35
e 3 80
e 3 42
e 3 108
e 3 34
e 3 16
e 3 115
e 3 83
e 3 117
e 3 22
e 3 89
e 3 56
e 3 57
e 3 94
e 3 31
e 4 34
e 4 68
e 4 69
e 4 76
e 4 77
e 4 48
e 4 83
e 4 85
e 4 22
e 4 25
e 4 93
e 4 31
e 5 33
e 5 38
e 5 97
e 5 74
e 5 108
e 5 20
e 5 22
e 5 23
e 5 84
e 5 27
e 5 28
e 5 95
e 6 65
e 6 70
e 6 104
e 6 105
e 6 78
e 6 15
e 6 114
e 6 83
e 6 14
e 6 125
e 6 31
e 7 108
e 7 78
e 7 81
e 7 14
e 7 86
e 7 58
e 7 30
e 8 40
e 8 12
e 8 44
e 8 110
e 8 113
e 8 121
e 8 58
e 9 32
e 9 64
e 9 69
e 9 108
e 9 74
e 9 12
e 9 46
e 9 116
e 9 88
e 9 26
e 9 124
e 10 33
e 10 34
e 10 118
e 10 71
e 10 83
e 10 20
e 10 54
e 10 121
e 10 29
e 10 95
e 11 97
e 11 15
e 11 112
e 11 51
e 11 86
e 11 26
e 11 59
e 11 124
e 12 68
e 12 102
e 12 33
e 12 43
e 12 76
e 12 78
e 12 15
e 12 104
e 12 114
e 12 84
e 12 88
e 12 89
e 12 92
e 13 65
e 13 102
e 13 71
e 13 108
e 13 78
e 13 48
e 13 84
e 13 14
e 13 88
e 13 121
e 13 124
e 14 64
e 14 35
e 14 73
e 14 42
e 14 71
e 14 108
e 14 106
e 14 87
e 14 89
e 14 28
e 14 93
e 14 63
e 15 32
e 15 96
e 15 67
e 15 38
e 15 71
e 15 77
e 15 79
e 15 75
e 15 51
e 15 119
e 15 57
e 15 124
e 15 109
e 15 94
e 16 64
e 16 112
e 16 68
e 16 101
e 16 103
e 16 40
e 16 76
e 16 74
e 16 44
e 16 80
e 16 72
e 16 21
e 16 89
e 16 23
e 16 25
e 16 29
e 16 53
e 17 64
e 17 33
e 17 68
e 17 102
e 17 97
e 17 72
e 17 42
e 17 43
e 17 111
e 17 88
e 17 50
e 17 83
e 17 116
e 17 56
e 17 60
e 17 30
e 18 65
e 18 102
e 18 104
e 18 113
e 18 52
e 18 30
e 18 57
e 18 27
e 18 62
e 19 124
e 19 106
e 19 113
e 19 83
e 19 20
e 19 60
e 19 61
e 20 35
e 20 100
e 20 70
e 20 107
e 20 108
e 20 113
e 20 91
e 20 74
e 20 94
e 21 66
e 21 102
e 21 38
e 21 71
e 21 110
e 21 78
e 21 62
e 21 86
e 21 57
e 21 24
e 21 25
e 21 27
e 21 30
e 21 85
e 22 37
e 22 106
e 22 23
e 22 121
e 22 91
e 22 61
e 22 31
e 23 32
e 23 100
e 23 70
e 23 41
e 23 107
e 23 50
e 23 25
e 23 95
e 23 102
e 23 69
e 24 97
e 24 78
e 24 111
e 24 114
e 24 83
e 24 120
e 24 91
e 24 62
e 25 64
e 25 35
e 25 38
e 25 42
e 25 78
e 25 28
e 25 63
e 26 97
e 26 98
e 26 37
e 26 72
e 26 79
e 26 113
e 26 83
e 26 52
e 26 56
e 26 27
e 26 95
e 27 74
e 27 44
e 27 50
e 27 125
e 27 116
e 27 57
e 27 93
e 27 62
e 27 31
e 28 64
e 28 96
e 28 38
e 28 112
e 28 72
e 28 108
e 28 76
e 28 79
e 28 48
e 28 85
e 28 31
e 29 73
e 29 76
e 29 46
e 29 106
e 29 53
e 29 78
e 30 68
e 30 108
e 30 113
e 30 71
e 30 44
e 30 50
e 30 54
e 31 73
e 31 76
e 31 111
e 31 87
e 31 89
e 31 94
e 32 34
e 32 67
e 32 68
e 32 75
e 32 108
e 32 82
e 32 51
e 32 117
e 32 120
e 32 62
e 32 63
e 33 36
e 33 71
e 33 108
e 33 107
e 33 77
e 33 115
e 33 116
e 33 86
e 33 89
e 33 91
e 33 124
e 33 94
e 34 64
e 34 75
e 34 118
e 34 58
e 34 42
e 34 62
e 35 76
e 35 79
e 35 81
e 35 115
e 35 120
e 35 90
e 35 61
e 35 94
e 36 50
e 36 51
e 36 56
e 36 60
e 36 61
e 36 71
e 36 73
e 36 75
e 36 78
e 36 79
e 36 81
e 36 85
e 36 88
e 36 90
e 36 91
e 36 97
e 36 100
e 36 103
e 36 105
e 36 109
e 36 122
e 37 98
e 37 75
e 37 103
e 37 40
e 37 41
e 37 43
e 37 110
e 37 48
e 37 88
e 37 95
e 38 98
e 38 99
e 38 113
e 38 104
e 38 105
e 38 76
e 38 46
e 38 112
e 38 108
e 38 51
e 39 106
e 39 76
e 39 77
e 39 82
e 39 84
e 39 117
e 39 56
e 39 122
e 39 59
e 40 112
e 40 73
e 40 74
e 40 75
e 40 85
e 41 102
e 41 124
e 41 108
e 41 111
e 41 49
e 41 116
e 41 55
e 41 70
e 41 125
e 42 107
e 42 113
e 42 81
e 42 83
e 42 115
e 42 82
e 42 51
e 42 46
e 42 122
e 42 123
e 42 61
e 42 63
e 43 65
e 43 113
e 43 70
e 43 71
e 43 73
e 43 125
e 43 119
e 43 121
e 43 92
e 43 93
e 44 97
e 44 109
e 44 53
e 44 119
e 44 56
e 44 57
e 44 90
e 44 124
e 45 76
e 45 111
e 45 112
e 45 81
e 45 93
e 45 94
e 46 99
e 46 47
e 46 50
e 46 83
e 46 52
e 46 105
e 46 121
e 47 99
e 47 100
e 47 103
e 47 82
e 47 83
e 47 84
e 47 61
e 47 62
e 48 103
e 48 109
e 48 51
e 48 52
e 48 55
e 48 57
e 48 95
e 49 100
e 49 69
e 49 109
e 49 105
e 49 87
e 49 57
e 49 59
e 50 101
e 50 102
e 50 107
e 50 76
e 50 79
e 50 82
e 50 88
e 50 89
e 50 58
e 50 93
e 51 69
e 51 103
e 51 73
e 51 125
e 51 81
e 51 102
e 51 113
e 51 120
e 51 89
e 51 95
e 51 74
e 51 63
e 52 97
e 52 102
e 52 71
e 52 72
e 52 116
e 52 92
e 52 61
e 53 121
e 53 76
e 53 81
e 53 84
e 53 55
e 53 57
e 53 122
e 53 91
e 54 91
e 54 94
e 54 119
e 55 100
e 55 74
e 55 119
e 55 81
e 55 83
e 55 116
e 55 87
e 55 56
e 55 120
e 55 95
e 55 63
e 56 106
e 56 66
e 56 84
e 56 113
e 56 93
e 57 103
e 57 74
e 57 118
e 58 105
e 58 107
e 58 108
e 58 98
e 58 80
e 58 90
e 58 124
e 58 122
e 59 65
e 59 98
e 59 100
e 59 73
e 59 75
e 59 107
e 59 122
e 60 92
e 60 98
e 61 66
e 61 83
e 61 80
e 61 120
e 61 116
e 61 79
e 61 95
e 62 97
e 62 68
e 62 112
e 62 88
e 62 93
e 62 117
e 63 115
e 63 101
e 63 102
e 63 77
e 63 79
e 63 88
e 63 90
e 63 74
e 63 95
e 64 80
e 64 100
e 64 113
e 64 110
e 64 114
e 64 115
e 64 84
e 64 85
e 64 86
e 64 88
e 64 93
e 65 72
e 65 111
e 65 81
e 65 121
e 66 97
e 66 100
e 66 74
e 66 108
e 66 115
e 66 90
e 66 123
e 66 92
e 66 95
e 67 107
e 67 115
e 67 87
e 67 124
e 67 94
e 68 81
e 68 73
e 68 106
e 68 78
e 68 113
e 68 120
e 68 105
e 68 88
e 68 89
e 69 121
e 69 103
e 69 83
e 69 116
e 69 85
e 69 100
e 69 94
e 70 107
e 70 112
e 70 84
e 70 94
e 71 75
e 71 103
e 71 88
e 71 100
e 72 101
e 72 103
e 72 75
e 72 76
e 72 123
e 72 122
e 73 96
e 73 122
e 73 93
e 73 95
e 73 108
e 73 79
e 73 82
e 73 117
e 73 86
e 73 90
e 75 97
e 75 81
e 75 108
e 75 79
e 75 103
e 75 76
e 75 112
e 75 113
e 75 118
e 75 90
e 76 80
e 76 117
e 76 110
e 76 83
e 76 119
e 76 89
e 77 105
e 77 107
e 77 120
e 77 100
e 77 90
e 78 105
e 78 112
e 78 121
e 78 119
e 78 90
e 79 108
e 79 118
e 80 92
e 81 112
e 81 114
e 81 84
e 81 87
e 81 124
e 82 97
e 82 99
e 82 89
e 82 94
e 83 86
e 83 91
e 83 100
e 83 103
e 83 106
e 83 113
e 83 125
e 84 107
e 84 90
e 84 122
e 85 124
e 85 109
e 85 112
e 85 89
e 86 120
e 86 88
e 86 123
e 86 117
e 87 96
e 87 124
e 87 103
e 87 116
e 87 88
e 87 92
e 87 93
e 88 116
e 88 120
e 88 121
e 88 92
e 89 96
e 89 112
e 89 121
e 90 97
e 90 122
e 90 110
e 90 105
e 90 116
e 90 91
e 90 93
e 91 113
e 91 120
e 91 123
e 92 97
e 92 120
e 93 109
e 93 116
e 94 96
e 94 97
e 94 106
e 94 108
e 94 115
e 94 123
e 95 99
e 95 119
e 95 98
e 95 125
e 95 122
e 96 100
e 96 101
e 96 119
e 96 109
e 96 115
e 97 118
e 97 116
e 97 117
e 98 123
e 99 102
e 99 109
e 100 118
e 100 125
e 101 112
e 101 104
e 102 110
e 102 120
e 102 123
e 103 105
e 103 106
e 103 109
e 104 105
e 105 122
e 105 112
e 105 117
e 106 121
e 106 122
e 107 118
e 107 124
e 108 115
e 109 118
e 113 117
e 113 123
e 115 119
e 116 123
e 116 118
e 117 118
e 117 119
